computational_data/real_data/solutions/wdbc_trial_010_lex.sol
Optimal - objective value 8.18584100
      0 r_0                         0                0.973451
      1 r_1                         1                0.973451
      2 r_2                         0                0.973451
      3 r_3                         0                0.964602
      4 r_4                         0                0.964602
      5 r_5                         0                0.946903
      6 r_6                         1                0.911504
      7 r_7                         0                0.911504
      8 r_8                         1                0.902655
      9 r_9                         0                0.884956
     10 r_10                        0                0.884956
     11 r_11                        0                0.884956
     12 r_12                        1                0.884956
     13 r_13                        0                0.884956
     14 r_14                        0                0.884956
     15 r_15                        0                0.884956
     16 b_0                         1                0.973451
     17 b_1                         0                0.973451
     18 b_2                         0                0.973451
     19 b_3                         0                0.964602
     20 b_4                         0                0.964602
     21 b_5                         0                0.946903
     22 b_6                         0                0.911504
     23 b_7                         0                0.911504
     24 b_8                         0                0.902655
     25 b_9                         1                0.884956
     26 b_10                        0                0.884956
     27 b_11                        1                0.884956
     28 b_12                        0                0.884956
     29 b_13                        1                0.884956
     30 b_14                        1                0.884956
     31 b_15                        0                0.884956
