computational_data/real_data/logs/wdbc_trial_010_lex.log
Welcome to the CBC MILP Solver 
Version: 2.10.12 
Build Date: Aug 20 2024 

command line - /opt/homebrew/bin/cbc computational_data/real_data/lp/wdbc_trial_010_lex.lp seconds 10.0 solve solu computational_data/real_data/solutions/wdbc_trial_010_lex.sol (default strategy 1)
 CoinLpIO::readLp(): Maximization problem reformulated as minimization
Coin0009I Switching back to maximization to get correct duals etc
seconds was changed from 1e+100 to 10
Continuous objective value is 8.32301 - 0.00 seconds
Cgl0003I 0 fixed, 0 tightened bounds, 43 strengthened rows, 4 substitutions
Cgl0003I 0 fixed, 0 tightened bounds, 46 strengthened rows, 0 substitutions
Cgl0003I 0 fixed, 0 tightened bounds, 35 strengthened rows, 0 substitutions
Cgl0003I 0 fixed, 0 tightened bounds, 23 strengthened rows, 0 substitutions
Cgl0003I 0 fixed, 0 tightened bounds, 11 strengthened rows, 0 substitutions
Cgl0003I 0 fixed, 0 tightened bounds, 5 strengthened rows, 0 substitutions
Cgl0003I 0 fixed, 0 tightened bounds, 4 strengthened rows, 0 substitutions
Cgl0003I 0 fixed, 0 tightened bounds, 4 strengthened rows, 0 substitutions
Cgl0003I 0 fixed, 0 tightened bounds, 4 strengthened rows, 0 substitutions
Cgl0004I processed model has 54 rows, 24 columns (24 integer (24 of which binary)) and 299 elements
Cbc0038I Initial state - 7 integers unsatisfied sum - 2.33333
Cbc0038I Pass   1: suminf.    0.00000 (0) obj. 8.18584 iterations 18
Cbc0038I Solution found of 8.18584
Cbc0038I Before mini branch and bound, 17 integers at bound fixed and 0 continuous
Cbc0038I Full problem 54 rows 24 columns, reduced to 3 rows 3 columns
Cbc0038I Mini branch and bound did not improve solution (0.00 seconds)
Cbc0038I Round again with cutoff of 8.18644
Cbc0038I Reduced cost fixing fixed 4 variables on major pass 2
Cbc0038I Pass   2: suminf.    0.27075 (4) obj. 8.18644 iterations 13
Cbc0038I Pass   3: suminf.    0.27075 (4) obj. 8.18644 iterations 1
Cbc0038I Pass   4: suminf.    2.00000 (4) obj. 8.19027 iterations 6
Cbc0038I Pass   5: suminf.    0.27075 (4) obj. 8.18644 iterations 4
Cbc0038I Pass   6: suminf.    0.27073 (7) obj. 8.18644 iterations 12
Cbc0038I Pass   7: suminf.    0.27075 (4) obj. 8.18644 iterations 2
Cbc0038I Pass   8: suminf.    2.00000 (4) obj. 8.19027 iterations 9
Cbc0038I Pass   9: suminf.    0.27075 (4) obj. 8.18644 iterations 3
Cbc0038I Pass  10: suminf.    0.27075 (4) obj. 8.18644 iterations 3
Cbc0038I Pass  11: suminf.    2.00000 (4) obj. 8.19027 iterations 12
Cbc0038I Pass  12: suminf.    1.80197 (7) obj. 8.18644 iterations 13
Cbc0038I Pass  13: suminf.    1.80197 (7) obj. 8.18644 iterations 1
Cbc0038I Pass  14: suminf.    2.00000 (4) obj. 8.19027 iterations 7
Cbc0038I Pass  15: suminf.    0.27075 (4) obj. 8.18644 iterations 4
Cbc0038I Pass  16: suminf.    0.27075 (4) obj. 8.18644 iterations 5
Cbc0038I Pass  17: suminf.    2.00000 (4) obj. 8.19027 iterations 12
Cbc0038I Pass  18: suminf.    2.43229 (7) obj. 8.18644 iterations 7
Cbc0038I Pass  19: suminf.    0.60919 (9) obj. 8.18644 iterations 15
Cbc0038I Pass  20: suminf.    0.27075 (4) obj. 8.18644 iterations 5
Cbc0038I Pass  21: suminf.    2.00000 (4) obj. 8.19027 iterations 8
Cbc0038I Pass  22: suminf.    0.27075 (4) obj. 8.18644 iterations 6
Cbc0038I Pass  23: suminf.    0.27075 (4) obj. 8.18644 iterations 5
Cbc0038I Pass  24: suminf.    2.00000 (4) obj. 8.19027 iterations 11
Cbc0038I Pass  25: suminf.    0.27075 (4) obj. 8.18644 iterations 7
Cbc0038I Pass  26: suminf.    0.27075 (4) obj. 8.18644 iterations 3
Cbc0038I Pass  27: suminf.    2.00000 (4) obj. 8.19027 iterations 9
Cbc0038I Pass  28: suminf.    0.27075 (4) obj. 8.18644 iterations 4
Cbc0038I Pass  29: suminf.    0.27075 (4) obj. 8.18644 iterations 7
Cbc0038I Pass  30: suminf.    2.00000 (4) obj. 8.19027 iterations 5
Cbc0038I Pass  31: suminf.    0.27075 (4) obj. 8.18644 iterations 6
Cbc0038I No solution found this major pass
Cbc0038I Before mini branch and bound, 7 integers at bound fixed and 0 continuous
Cbc0038I Full problem 54 rows 24 columns, reduced to 38 rows 17 columns
Cbc0038I Mini branch and bound did not improve solution (0.01 seconds)
Cbc0038I After 0.01 seconds - Feasibility pump exiting with objective of 8.18584 - took 0.00 seconds
Cbc0012I Integer solution of 8.185841 found by feasibility pump after 0 iterations and 0 nodes (0.01 seconds)
Cbc0038I Full problem 54 rows 24 columns, reduced to 3 rows 3 columns
Cbc0031I 3 added rows had average density of 9
Cbc0013I At root node, 9 cuts changed objective from 8.1917407 to 8.185841 in 1 passes
Cbc0014I Cut generator 0 (Probing) - 0 row cuts average 0.0 elements, 2 column cuts (2 active)  in 0.000 seconds - new frequency is 1
Cbc0014I Cut generator 1 (Gomory) - 2 row cuts average 7.0 elements, 0 column cuts (0 active)  in 0.000 seconds - new frequency is 1
Cbc0014I Cut generator 2 (Knapsack) - 0 row cuts average 0.0 elements, 0 column cuts (0 active)  in 0.000 seconds - new frequency is -100
Cbc0014I Cut generator 3 (Clique) - 0 row cuts average 0.0 elements, 0 column cuts (0 active)  in 0.000 seconds - new frequency is -100
Cbc0014I Cut generator 4 (MixedIntegerRounding2) - 0 row cuts average 0.0 elements, 0 column cuts (0 active)  in 0.000 seconds - new frequency is -100
Cbc0014I Cut generator 5 (FlowCover) - 0 row cuts average 0.0 elements, 0 column cuts (0 active)  in 0.000 seconds - new frequency is -100
Cbc0014I Cut generator 6 (TwoMirCuts) - 5 row cuts average 16.4 elements, 0 column cuts (0 active)  in 0.000 seconds - new frequency is -100
Cbc0014I Cut generator 7 (ZeroHalf) - 2 row cuts average 4.5 elements, 0 column cuts (0 active)  in 0.000 seconds - new frequency is -100
Cbc0001I Search completed - best objective 8.185841, took 0 iterations and 0 nodes (0.01 seconds)
Cbc0035I Maximum depth 0, 2 variables fixed on reduced cost
Cuts at root node changed objective from 8.19174 to 8.18584
Probing was tried 1 times and created 2 cuts of which 0 were active after adding rounds of cuts (0.000 seconds)
Gomory was tried 1 times and created 2 cuts of which 0 were active after adding rounds of cuts (0.000 seconds)
Knapsack was tried 1 times and created 0 cuts of which 0 were active after adding rounds of cuts (0.000 seconds)
Clique was tried 1 times and created 0 cuts of which 0 were active after adding rounds of cuts (0.000 seconds)
MixedIntegerRounding2 was tried 1 times and created 0 cuts of which 0 were active after adding rounds of cuts (0.000 seconds)
FlowCover was tried 1 times and created 0 cuts of which 0 were active after adding rounds of cuts (0.000 seconds)
TwoMirCuts was tried 1 times and created 5 cuts of which 0 were active after adding rounds of cuts (0.000 seconds)
ZeroHalf was tried 1 times and created 2 cuts of which 0 were active after adding rounds of cuts (0.000 seconds)

Result - Optimal solution found

Objective value:                8.18584100
Enumerated nodes:               0
Total iterations:               0
Time (CPU seconds):             0.01
Time (Wallclock seconds):       0.01

Total time (CPU seconds):       0.01   (Wallclock seconds):       0.01

